p cnf 25 156
21 24 -23 22 -25 0
-3 -2 4 -5 1 0
11 -15 14 12 -13 0
-18 -11 23 3 9 0
-23 24 -21 22 -25 0
-19 16 -18 -20 -17 0
-1 -3 -5 -2 4 0
20 -19 -16 -17 -18 0
-15 12 -14 13 11 0
2 1 -5 4 -3 0
18 19 16 17 -20 0
3 5 4 1 -2 0
14 13 11 12 15 0
6 -8 -10 7 -9 0
22 -23 -25 -24 -21 0
-3 5 1 4 2 0
-11 12 14 15 -13 0
-22 -25 23 -21 -24 0
-14 -12 11 13 -15 0
-3 5 1 2 -4 0
-6 -9 -7 -8 10 0
-16 17 -18 19 -20 0
-6 9 7 -8 -10 0
2 4 -3 -1 -5 0
-2 -5 -3 1 -4 0
17 20 -18 -19 -16 0
-7 -8 -9 -6 -10 0
25 23 21 22 -24 0
20 17 18 16 19 0
8 2 -13 -25 -16 0
-10 -7 -9 8 6 0
5 4 -2 -1 -3 0
4 -19 -15 -6 25 0
-13 14 11 12 15 0
-16 17 18 -19 20 0
22 21 24 25 -23 0
2 -1 -3 -5 -4 0
-4 -3 -1 -2 -5 0
5 4 2 -1 3 0
-8 -5 16 22 15 0
5 2 4 3 1 0
6 -9 10 8 7 0
3 -1 -2 5 -4 0
16 17 20 18 -19 0
20 17 -16 19 18 0
24 21 23 22 25 0
-21 -22 -24 -23 -25 0
19 -17 18 20 16 0
-9 -1 -23 -18 12 0
-23 24 25 -21 -22 0
-25 22 23 21 -24 0
11 14 15 13 -12 0
23 24 22 25 -21 0
-10 7 9 8 -6 0
-17 18 -20 -16 -19 0
-22 24 21 25 -23 0
6 -8 -10 9 -7 0
22 -21 23 -25 24 0
-7 12 20 -25 1 0
-4 -2 3 1 5 0
9 6 -8 -10 7 0
20 -19 16 -18 17 0
-5 -3 1 2 -4 0
3 -2 4 1 -5 0
-5 -4 3 -2 1 0
-6 -8 7 -9 10 0
19 17 20 -18 -16 0
13 12 14 11 -15 0
15 12 -14 11 -13 0
-12 11 15 -14 13 0
17 -20 -16 19 18 0
24 21 -22 -25 23 0
16 17 -18 -20 19 0
-21 3 -19 12 7 0
12 14 15 13 -11 0
25 23 -24 -21 -22 0
-21 25 23 -24 22 0
10 -7 -8 6 -9 0
2 1 -4 5 3 0
-17 19 -16 -18 20 0
10 8 -6 -7 9 0
-9 -6 10 8 -7 0
-15 14 13 -11 -12 0
-2 -3 -4 5 -1 0
3 1 -4 2 -5 0
-9 -19 23 -3 12 0
8 6 -7 -10 9 0
-20 17 18 -19 -16 0
25 16 15 -2 6 0
4 3 -5 2 -1 0
11 15 14 -13 -12 0
-15 -13 11 14 -12 0
4 -5 3 1 2 0
13 -15 -14 -11 -12 0
16 -20 -18 -19 17 0
-17 19 18 -16 20 0
-16 -20 19 -18 -17 0
20 -19 -17 -16 18 0
8 -6 10 -9 7 0
20 -24 -7 1 -12 0
15 -13 -14 12 -11 0
25 -21 -23 24 22 0
18 -17 16 19 -20 0
4 -23 -10 -13 -20 0
-22 -15 -17 1 -6 0
-25 -21 24 -22 -23 0
8 -6 9 7 10 0
-6 7 9 -8 10 0
17 6 23 2 -15 0
-21 24 -25 -22 23 0
6 9 10 -8 -7 0
6 -9 8 -10 7 0
-22 -6 14 -20 4 0
-7 9 -6 10 -8 0
4 5 1 -2 -3 0
-1 3 -5 -4 2 0
-23 22 -25 -24 21 0
5 -3 -4 -2 1 0
-23 -25 21 -22 -24 0
21 -7 17 11 2 0
-9 -8 7 6 10 0
-20 18 -17 -19 16 0
3 -1 5 -2 4 0
-14 -12 -13 15 11 0
23 25 24 -22 -21 0
-24 -22 21 -25 23 0
-14 -12 -15 -11 -13 0
8 -7 10 -9 6 0
9 18 15 -5 -25 0
21 9 3 20 11 0
21 25 -22 -24 -23 0
-7 9 8 10 6 0
-16 17 -18 -19 -20 0
-17 19 -16 18 -20 0
12 13 -14 -15 -11 0
11 -20 -8 -24 5 0
-22 21 23 -24 25 0
-9 -6 7 8 -10 0
-16 9 2 14 -25 0
-2 -1 3 -5 4 0
7 10 9 -8 6 0
-6 -2 -18 22 -12 0
15 13 -12 -11 14 0
23 -24 -25 -21 22 0
4 -16 14 23 8 0
-23 24 -22 -25 21 0
25 -23 -22 -21 -24 0
-19 -20 17 18 16 0
-18 1 -7 24 12 0
25 21 22 -24 -23 0
-24 25 -23 22 -21 0
8 9 7 6 10 0
-15 -13 -14 -12 11 0
11 -14 -15 12 -13 0
-11 14 -15 -13 -12 0
21 -25 23 22 24 0
